# Factor graph made by ../utils/createfg
# type = GRID
# states = 2
# n1 = 4
# n2 = 4
# options = [mean_th=0,mean_w=0,sigma_th=0.4,sigma_w=0.4]
# N = 16
# seed = 123
40

2
0 4 
2 2 
4
0    1.55785
1   0.641909
2   0.641909
3    1.55785

2
0 1 
2 2 
4
0    1.00773
1   0.992328
2   0.992328
3    1.00773

2
1 5 
2 2 
4
0    1.78772
1   0.559373
2   0.559373
3    1.78772

2
1 2 
2 2 
4
0   0.882839
1    1.13271
2    1.13271
3   0.882839

2
2 6 
2 2 
4
0    1.39819
1   0.715211
2   0.715211
3    1.39819

2
2 3 
2 2 
4
0    1.13791
1   0.878807
2   0.878807
3    1.13791

2
3 7 
2 2 
4
0   0.580131
1    1.72375
2    1.72375
3   0.580131

2
4 8 
2 2 
4
0    2.30325
1   0.434168
2   0.434168
3    2.30325

2
4 5 
2 2 
4
0   0.795215
1    1.25752
2    1.25752
3   0.795215

2
5 9 
2 2 
4
0    1.45375
1   0.687876
2   0.687876
3    1.45375

2
5 6 
2 2 
4
0    2.49364
1    0.40102
2    0.40102
3    2.49364

2
6 10 
2 2 
4
0    1.08628
1   0.920573
2   0.920573
3    1.08628

2
6 7 
2 2 
4
0   0.673644
1    1.48446
2    1.48446
3   0.673644

2
7 11 
2 2 
4
0   0.708219
1    1.41199
2    1.41199
3   0.708219

2
8 12 
2 2 
4
0    1.38777
1   0.720582
2   0.720582
3    1.38777

2
8 9 
2 2 
4
0   0.409675
1    2.44096
2    2.44096
3   0.409675

2
9 13 
2 2 
4
0    1.20244
1   0.831645
2   0.831645
3    1.20244

2
9 10 
2 2 
4
0   0.700179
1    1.42821
2    1.42821
3   0.700179

2
10 14 
2 2 
4
0   0.684168
1    1.46163
2    1.46163
3   0.684168

2
10 11 
2 2 
4
0    2.12998
1   0.469487
2   0.469487
3    2.12998

2
11 15 
2 2 
4
0   0.675744
1    1.47985
2    1.47985
3   0.675744

2
12 13 
2 2 
4
0   0.895744
1    1.11639
2    1.11639
3   0.895744

2
13 14 
2 2 
4
0   0.797362
1    1.25414
2    1.25414
3   0.797362

2
14 15 
2 2 
4
0   0.765242
1    1.30678
2    1.30678
3   0.765242

1
0 
2 
2
0   0.784958
1    1.27395

1
1 
2 
2
0    1.22582
1   0.815779

1
2 
2 
2
0    1.03047
1   0.970432

1
3 
2 
2
0    0.61121
1     1.6361

1
4 
2 
2
0    1.26126
1   0.792857

1
5 
2 
2
0    1.06453
1   0.939384

1
6 
2 
2
0   0.988982
1    1.01114

1
7 
2 
2
0   0.983169
1    1.01712

1
8 
2 
2
0   0.715963
1    1.39672

1
9 
2 
2
0    1.14095
1   0.876466

1
10 
2 
2
0    1.15512
1   0.865708

1
11 
2 
2
0    1.18486
1   0.843984

1
12 
2 
2
0   0.916541
1    1.09106

1
13 
2 
2
0    2.61467
1   0.382458

1
14 
2 
2
0   0.725142
1    1.37904

1
15 
2 
2
0    1.43262
1   0.698024
